p cnf 577 2238
c input variables 32
c output variables 1
c literals 6658
-33 4 0
33 -4 8 0
-33 -8 0
-34 3 0
34 -3 4 7 8 0
-34 4 -8 0
-34 -7 0
34 -3 -4 7 -8 0
-34 -4 8 0
35 -34 0
-35 33 34 0
35 -33 0
-36 2 0
36 -2 4 6 8 0
-36 4 -8 0
-36 -6 0
36 -2 -4 6 -8 0
-36 -4 8 0
37 3 7 -36 0
-37 36 0
-37 3 -7 0
-37 -3 7 0
37 -3 -7 -36 0
38 -37 0
-38 35 37 0
38 -35 0
-39 1 0
39 -1 4 5 8 0
-39 4 -8 0
-39 -5 0
39 -1 -4 5 -8 0
-39 -4 8 0
40 3 7 -39 0
-40 39 0
-40 3 -7 0
-40 -3 7 0
40 -3 -7 -39 0
41 2 6 -40 0
-41 40 0
-41 2 -6 0
-41 -2 6 0
41 -2 -6 -40 0
42 -41 0
-42 38 41 0
42 -38 0
43 -1 42 0
43 -5 -42 0
-43 1 42 0
-43 5 -42 0
44 -2 42 0
44 -6 -42 0
-44 2 42 0
-44 6 -42 0
45 -3 42 0
45 -7 -42 0
-45 3 42 0
-45 7 -42 0
46 -4 42 0
46 -8 -42 0
-46 4 42 0
-46 8 -42 0
47 -5 42 0
47 -1 -42 0
-47 5 42 0
-47 1 -42 0
48 -6 42 0
48 -2 -42 0
-48 6 42 0
-48 2 -42 0
49 -7 42 0
49 -3 -42 0
-49 7 42 0
-49 3 -42 0
50 -8 42 0
50 -4 -42 0
-50 8 42 0
-50 4 -42 0
51 12 -50 0
-51 50 0
-51 -12 0
-52 49 0
52 11 12 -49 50 0
-52 12 -50 0
52 11 -12 -49 -50 0
-52 -12 50 0
-52 -11 0
53 -52 0
-53 51 52 0
53 -51 0
-54 48 0
54 10 12 -48 50 0
-54 12 -50 0
54 10 -12 -48 -50 0
-54 -12 50 0
-54 -10 0
55 11 49 -54 0
-55 54 0
-55 11 -49 0
-55 -11 49 0
55 -11 -49 -54 0
56 -55 0
-56 53 55 0
56 -53 0
-57 47 0
57 9 12 -47 50 0
-57 12 -50 0
57 9 -12 -47 -50 0
-57 -12 50 0
-57 -9 0
58 11 49 -57 0
-58 57 0
-58 11 -49 0
-58 -11 49 0
58 -11 -49 -57 0
59 10 48 -58 0
-59 58 0
-59 10 -48 0
-59 -10 48 0
59 -10 -48 -58 0
60 -59 0
-60 56 59 0
60 -56 0
61 -47 60 0
61 -9 -60 0
-61 47 60 0
-61 9 -60 0
62 -48 60 0
62 -10 -60 0
-62 48 60 0
-62 10 -60 0
63 -49 60 0
63 -11 -60 0
-63 49 60 0
-63 11 -60 0
64 -50 60 0
64 -12 -60 0
-64 50 60 0
-64 12 -60 0
65 -9 60 0
65 -47 -60 0
-65 9 60 0
-65 47 -60 0
66 -10 60 0
66 -48 -60 0
-66 10 60 0
-66 48 -60 0
67 -11 60 0
67 -49 -60 0
-67 11 60 0
-67 49 -60 0
68 -12 60 0
68 -50 -60 0
-68 12 60 0
-68 50 -60 0
69 16 -68 0
-69 68 0
-69 -16 0
-70 67 0
70 15 16 -67 68 0
-70 16 -68 0
70 15 -16 -67 -68 0
-70 -16 68 0
-70 -15 0
71 -70 0
-71 69 70 0
71 -69 0
-72 66 0
72 14 16 -66 68 0
-72 16 -68 0
72 14 -16 -66 -68 0
-72 -16 68 0
-72 -14 0
73 15 67 -72 0
-73 72 0
-73 15 -67 0
-73 -15 67 0
73 -15 -67 -72 0
74 -73 0
-74 71 73 0
74 -71 0
-75 65 0
75 13 16 -65 68 0
-75 16 -68 0
75 13 -16 -65 -68 0
-75 -16 68 0
-75 -13 0
76 15 67 -75 0
-76 75 0
-76 15 -67 0
-76 -15 67 0
76 -15 -67 -75 0
77 14 66 -76 0
-77 76 0
-77 14 -66 0
-77 -14 66 0
77 -14 -66 -76 0
78 -77 0
-78 74 77 0
78 -74 0
79 -65 78 0
79 -13 -78 0
-79 65 78 0
-79 13 -78 0
80 -66 78 0
80 -14 -78 0
-80 66 78 0
-80 14 -78 0
81 -67 78 0
81 -15 -78 0
-81 67 78 0
-81 15 -78 0
82 -68 78 0
82 -16 -78 0
-82 68 78 0
-82 16 -78 0
83 -13 78 0
83 -65 -78 0
-83 13 78 0
-83 65 -78 0
84 -14 78 0
84 -66 -78 0
-84 14 78 0
-84 66 -78 0
85 -15 78 0
85 -67 -78 0
-85 15 78 0
-85 67 -78 0
86 -16 78 0
86 -68 -78 0
-86 16 78 0
-86 68 -78 0
87 20 -86 0
-87 86 0
-87 -20 0
-88 85 0
88 19 20 -85 86 0
-88 20 -86 0
88 19 -20 -85 -86 0
-88 -20 86 0
-88 -19 0
89 -88 0
-89 87 88 0
89 -87 0
-90 84 0
90 18 20 -84 86 0
-90 20 -86 0
90 18 -20 -84 -86 0
-90 -20 86 0
-90 -18 0
91 19 85 -90 0
-91 90 0
-91 19 -85 0
-91 -19 85 0
91 -19 -85 -90 0
92 -91 0
-92 89 91 0
92 -89 0
-93 83 0
93 17 20 -83 86 0
-93 20 -86 0
93 17 -20 -83 -86 0
-93 -20 86 0
-93 -17 0
94 19 85 -93 0
-94 93 0
-94 19 -85 0
-94 -19 85 0
94 -19 -85 -93 0
95 18 84 -94 0
-95 94 0
-95 18 -84 0
-95 -18 84 0
95 -18 -84 -94 0
96 -95 0
-96 92 95 0
96 -92 0
97 -83 96 0
97 -17 -96 0
-97 83 96 0
-97 17 -96 0
98 -84 96 0
98 -18 -96 0
-98 84 96 0
-98 18 -96 0
99 -85 96 0
99 -19 -96 0
-99 85 96 0
-99 19 -96 0
100 -86 96 0
100 -20 -96 0
-100 86 96 0
-100 20 -96 0
101 -17 96 0
101 -83 -96 0
-101 17 96 0
-101 83 -96 0
102 -18 96 0
102 -84 -96 0
-102 18 96 0
-102 84 -96 0
103 -19 96 0
103 -85 -96 0
-103 19 96 0
-103 85 -96 0
104 -20 96 0
104 -86 -96 0
-104 20 96 0
-104 86 -96 0
105 24 -104 0
-105 104 0
-105 -24 0
-106 103 0
106 23 24 -103 104 0
-106 24 -104 0
106 23 -24 -103 -104 0
-106 -24 104 0
-106 -23 0
107 -106 0
-107 105 106 0
107 -105 0
-108 102 0
108 22 24 -102 104 0
-108 24 -104 0
108 22 -24 -102 -104 0
-108 -24 104 0
-108 -22 0
109 23 103 -108 0
-109 108 0
-109 23 -103 0
-109 -23 103 0
109 -23 -103 -108 0
110 -109 0
-110 107 109 0
110 -107 0
-111 101 0
111 21 24 -101 104 0
-111 24 -104 0
111 21 -24 -101 -104 0
-111 -24 104 0
-111 -21 0
112 23 103 -111 0
-112 111 0
-112 23 -103 0
-112 -23 103 0
112 -23 -103 -111 0
113 22 102 -112 0
-113 112 0
-113 22 -102 0
-113 -22 102 0
113 -22 -102 -112 0
114 -113 0
-114 110 113 0
114 -110 0
115 -101 114 0
115 -21 -114 0
-115 101 114 0
-115 21 -114 0
116 -102 114 0
116 -22 -114 0
-116 102 114 0
-116 22 -114 0
117 -103 114 0
117 -23 -114 0
-117 103 114 0
-117 23 -114 0
118 -104 114 0
118 -24 -114 0
-118 104 114 0
-118 24 -114 0
119 -21 114 0
119 -101 -114 0
-119 21 114 0
-119 101 -114 0
120 -22 114 0
120 -102 -114 0
-120 22 114 0
-120 102 -114 0
121 -23 114 0
121 -103 -114 0
-121 23 114 0
-121 103 -114 0
122 -24 114 0
122 -104 -114 0
-122 24 114 0
-122 104 -114 0
123 28 -122 0
-123 122 0
-123 -28 0
-124 121 0
124 27 28 -121 122 0
-124 28 -122 0
124 27 -28 -121 -122 0
-124 -28 122 0
-124 -27 0
125 -124 0
-125 123 124 0
125 -123 0
-126 120 0
126 26 28 -120 122 0
-126 28 -122 0
126 26 -28 -120 -122 0
-126 -28 122 0
-126 -26 0
127 27 121 -126 0
-127 126 0
-127 27 -121 0
-127 -27 121 0
127 -27 -121 -126 0
128 -127 0
-128 125 127 0
128 -125 0
-129 119 0
129 25 28 -119 122 0
-129 28 -122 0
129 25 -28 -119 -122 0
-129 -28 122 0
-129 -25 0
130 27 121 -129 0
-130 129 0
-130 27 -121 0
-130 -27 121 0
130 -27 -121 -129 0
131 26 120 -130 0
-131 130 0
-131 26 -120 0
-131 -26 120 0
131 -26 -120 -130 0
132 -131 0
-132 128 131 0
132 -128 0
133 -119 132 0
133 -25 -132 0
-133 119 132 0
-133 25 -132 0
134 -120 132 0
134 -26 -132 0
-134 120 132 0
-134 26 -132 0
135 -121 132 0
135 -27 -132 0
-135 121 132 0
-135 27 -132 0
136 -122 132 0
136 -28 -132 0
-136 122 132 0
-136 28 -132 0
137 -25 132 0
137 -119 -132 0
-137 25 132 0
-137 119 -132 0
138 -26 132 0
138 -120 -132 0
-138 26 132 0
-138 120 -132 0
139 -27 132 0
139 -121 -132 0
-139 27 132 0
-139 121 -132 0
140 -28 132 0
140 -122 -132 0
-140 28 132 0
-140 122 -132 0
141 32 -140 0
-141 140 0
-141 -32 0
-142 139 0
142 31 32 -139 140 0
-142 32 -140 0
142 31 -32 -139 -140 0
-142 -32 140 0
-142 -31 0
143 -142 0
-143 141 142 0
143 -141 0
-144 138 0
144 30 32 -138 140 0
-144 32 -140 0
144 30 -32 -138 -140 0
-144 -32 140 0
-144 -30 0
145 31 139 -144 0
-145 144 0
-145 31 -139 0
-145 -31 139 0
145 -31 -139 -144 0
146 -145 0
-146 143 145 0
146 -143 0
-147 137 0
147 29 32 -137 140 0
-147 32 -140 0
147 29 -32 -137 -140 0
-147 -32 140 0
-147 -29 0
148 31 139 -147 0
-148 147 0
-148 31 -139 0
-148 -31 139 0
148 -31 -139 -147 0
149 30 138 -148 0
-149 148 0
-149 30 -138 0
-149 -30 138 0
149 -30 -138 -148 0
150 -149 0
-150 146 149 0
150 -146 0
151 -137 150 0
151 -29 -150 0
-151 137 150 0
-151 29 -150 0
152 -138 150 0
152 -30 -150 0
-152 138 150 0
-152 30 -150 0
153 -139 150 0
153 -31 -150 0
-153 139 150 0
-153 31 -150 0
154 -140 150 0
154 -32 -150 0
-154 140 150 0
-154 32 -150 0
155 -29 150 0
155 -137 -150 0
-155 29 150 0
-155 137 -150 0
156 -30 150 0
156 -138 -150 0
-156 30 150 0
-156 138 -150 0
157 -31 150 0
157 -139 -150 0
-157 31 150 0
-157 139 -150 0
158 -32 150 0
158 -140 -150 0
-158 32 150 0
-158 140 -150 0
-159 46 0
159 -46 64 0
-159 -64 0
-160 45 0
160 -45 46 63 64 0
-160 46 -64 0
-160 -63 0
160 -45 -46 63 -64 0
-160 -46 64 0
161 -160 0
-161 159 160 0
161 -159 0
-162 44 0
162 -44 46 62 64 0
-162 46 -64 0
-162 -62 0
162 -44 -46 62 -64 0
-162 -46 64 0
163 45 63 -162 0
-163 162 0
-163 45 -63 0
-163 -45 63 0
163 -45 -63 -162 0
164 -163 0
-164 161 163 0
164 -161 0
-165 43 0
165 -43 46 61 64 0
-165 46 -64 0
-165 -61 0
165 -43 -46 61 -64 0
-165 -46 64 0
166 45 63 -165 0
-166 165 0
-166 45 -63 0
-166 -45 63 0
166 -45 -63 -165 0
167 44 62 -166 0
-167 166 0
-167 44 -62 0
-167 -44 62 0
167 -44 -62 -166 0
168 -167 0
-168 164 167 0
168 -164 0
169 -43 168 0
169 -61 -168 0
-169 43 168 0
-169 61 -168 0
170 -44 168 0
170 -62 -168 0
-170 44 168 0
-170 62 -168 0
171 -45 168 0
171 -63 -168 0
-171 45 168 0
-171 63 -168 0
172 -46 168 0
172 -64 -168 0
-172 46 168 0
-172 64 -168 0
173 -61 168 0
173 -43 -168 0
-173 61 168 0
-173 43 -168 0
174 -62 168 0
174 -44 -168 0
-174 62 168 0
-174 44 -168 0
175 -63 168 0
175 -45 -168 0
-175 63 168 0
-175 45 -168 0
176 -64 168 0
176 -46 -168 0
-176 64 168 0
-176 46 -168 0
177 82 -176 0
-177 176 0
-177 -82 0
-178 175 0
178 81 82 -175 176 0
-178 82 -176 0
178 81 -82 -175 -176 0
-178 -82 176 0
-178 -81 0
179 -178 0
-179 177 178 0
179 -177 0
-180 174 0
180 80 82 -174 176 0
-180 82 -176 0
180 80 -82 -174 -176 0
-180 -82 176 0
-180 -80 0
181 81 175 -180 0
-181 180 0
-181 81 -175 0
-181 -81 175 0
181 -81 -175 -180 0
182 -181 0
-182 179 181 0
182 -179 0
-183 173 0
183 79 82 -173 176 0
-183 82 -176 0
183 79 -82 -173 -176 0
-183 -82 176 0
-183 -79 0
184 81 175 -183 0
-184 183 0
-184 81 -175 0
-184 -81 175 0
184 -81 -175 -183 0
185 80 174 -184 0
-185 184 0
-185 80 -174 0
-185 -80 174 0
185 -80 -174 -184 0
186 -185 0
-186 182 185 0
186 -182 0
187 -173 186 0
187 -79 -186 0
-187 173 186 0
-187 79 -186 0
188 -174 186 0
188 -80 -186 0
-188 174 186 0
-188 80 -186 0
189 -175 186 0
189 -81 -186 0
-189 175 186 0
-189 81 -186 0
190 -176 186 0
190 -82 -186 0
-190 176 186 0
-190 82 -186 0
191 -79 186 0
191 -173 -186 0
-191 79 186 0
-191 173 -186 0
192 -80 186 0
192 -174 -186 0
-192 80 186 0
-192 174 -186 0
193 -81 186 0
193 -175 -186 0
-193 81 186 0
-193 175 -186 0
194 -82 186 0
194 -176 -186 0
-194 82 186 0
-194 176 -186 0
195 100 -194 0
-195 194 0
-195 -100 0
-196 193 0
196 99 100 -193 194 0
-196 100 -194 0
196 99 -100 -193 -194 0
-196 -100 194 0
-196 -99 0
197 -196 0
-197 195 196 0
197 -195 0
-198 192 0
198 98 100 -192 194 0
-198 100 -194 0
198 98 -100 -192 -194 0
-198 -100 194 0
-198 -98 0
199 99 193 -198 0
-199 198 0
-199 99 -193 0
-199 -99 193 0
199 -99 -193 -198 0
200 -199 0
-200 197 199 0
200 -197 0
-201 191 0
201 97 100 -191 194 0
-201 100 -194 0
201 97 -100 -191 -194 0
-201 -100 194 0
-201 -97 0
202 99 193 -201 0
-202 201 0
-202 99 -193 0
-202 -99 193 0
202 -99 -193 -201 0
203 98 192 -202 0
-203 202 0
-203 98 -192 0
-203 -98 192 0
203 -98 -192 -202 0
204 -203 0
-204 200 203 0
204 -200 0
205 -191 204 0
205 -97 -204 0
-205 191 204 0
-205 97 -204 0
206 -192 204 0
206 -98 -204 0
-206 192 204 0
-206 98 -204 0
207 -193 204 0
207 -99 -204 0
-207 193 204 0
-207 99 -204 0
208 -194 204 0
208 -100 -204 0
-208 194 204 0
-208 100 -204 0
209 -97 204 0
209 -191 -204 0
-209 97 204 0
-209 191 -204 0
210 -98 204 0
210 -192 -204 0
-210 98 204 0
-210 192 -204 0
211 -99 204 0
211 -193 -204 0
-211 99 204 0
-211 193 -204 0
212 -100 204 0
212 -194 -204 0
-212 100 204 0
-212 194 -204 0
213 118 -212 0
-213 212 0
-213 -118 0
-214 211 0
214 117 118 -211 212 0
-214 118 -212 0
214 117 -118 -211 -212 0
-214 -118 212 0
-214 -117 0
215 -214 0
-215 213 214 0
215 -213 0
-216 210 0
216 116 118 -210 212 0
-216 118 -212 0
216 116 -118 -210 -212 0
-216 -118 212 0
-216 -116 0
217 117 211 -216 0
-217 216 0
-217 117 -211 0
-217 -117 211 0
217 -117 -211 -216 0
218 -217 0
-218 215 217 0
218 -215 0
-219 209 0
219 115 118 -209 212 0
-219 118 -212 0
219 115 -118 -209 -212 0
-219 -118 212 0
-219 -115 0
220 117 211 -219 0
-220 219 0
-220 117 -211 0
-220 -117 211 0
220 -117 -211 -219 0
221 116 210 -220 0
-221 220 0
-221 116 -210 0
-221 -116 210 0
221 -116 -210 -220 0
222 -221 0
-222 218 221 0
222 -218 0
223 -209 222 0
223 -115 -222 0
-223 209 222 0
-223 115 -222 0
224 -210 222 0
224 -116 -222 0
-224 210 222 0
-224 116 -222 0
225 -211 222 0
225 -117 -222 0
-225 211 222 0
-225 117 -222 0
226 -212 222 0
226 -118 -222 0
-226 212 222 0
-226 118 -222 0
227 -115 222 0
227 -209 -222 0
-227 115 222 0
-227 209 -222 0
228 -116 222 0
228 -210 -222 0
-228 116 222 0
-228 210 -222 0
229 -117 222 0
229 -211 -222 0
-229 117 222 0
-229 211 -222 0
230 -118 222 0
230 -212 -222 0
-230 118 222 0
-230 212 -222 0
231 136 -230 0
-231 230 0
-231 -136 0
-232 229 0
232 135 136 -229 230 0
-232 136 -230 0
232 135 -136 -229 -230 0
-232 -136 230 0
-232 -135 0
233 -232 0
-233 231 232 0
233 -231 0
-234 228 0
234 134 136 -228 230 0
-234 136 -230 0
234 134 -136 -228 -230 0
-234 -136 230 0
-234 -134 0
235 135 229 -234 0
-235 234 0
-235 135 -229 0
-235 -135 229 0
235 -135 -229 -234 0
236 -235 0
-236 233 235 0
236 -233 0
-237 227 0
237 133 136 -227 230 0
-237 136 -230 0
237 133 -136 -227 -230 0
-237 -136 230 0
-237 -133 0
238 135 229 -237 0
-238 237 0
-238 135 -229 0
-238 -135 229 0
238 -135 -229 -237 0
239 134 228 -238 0
-239 238 0
-239 134 -228 0
-239 -134 228 0
239 -134 -228 -238 0
240 -239 0
-240 236 239 0
240 -236 0
241 -227 240 0
241 -133 -240 0
-241 227 240 0
-241 133 -240 0
242 -228 240 0
242 -134 -240 0
-242 228 240 0
-242 134 -240 0
243 -229 240 0
243 -135 -240 0
-243 229 240 0
-243 135 -240 0
244 -230 240 0
244 -136 -240 0
-244 230 240 0
-244 136 -240 0
245 -133 240 0
245 -227 -240 0
-245 133 240 0
-245 227 -240 0
246 -134 240 0
246 -228 -240 0
-246 134 240 0
-246 228 -240 0
247 -135 240 0
247 -229 -240 0
-247 135 240 0
-247 229 -240 0
248 -136 240 0
248 -230 -240 0
-248 136 240 0
-248 230 -240 0
249 154 -248 0
-249 248 0
-249 -154 0
-250 247 0
250 153 154 -247 248 0
-250 154 -248 0
250 153 -154 -247 -248 0
-250 -154 248 0
-250 -153 0
251 -250 0
-251 249 250 0
251 -249 0
-252 246 0
252 152 154 -246 248 0
-252 154 -248 0
252 152 -154 -246 -248 0
-252 -154 248 0
-252 -152 0
253 153 247 -252 0
-253 252 0
-253 153 -247 0
-253 -153 247 0
253 -153 -247 -252 0
254 -253 0
-254 251 253 0
254 -251 0
-255 245 0
255 151 154 -245 248 0
-255 154 -248 0
255 151 -154 -245 -248 0
-255 -154 248 0
-255 -151 0
256 153 247 -255 0
-256 255 0
-256 153 -247 0
-256 -153 247 0
256 -153 -247 -255 0
257 152 246 -256 0
-257 256 0
-257 152 -246 0
-257 -152 246 0
257 -152 -246 -256 0
258 -257 0
-258 254 257 0
258 -254 0
259 -245 258 0
259 -151 -258 0
-259 245 258 0
-259 151 -258 0
260 -246 258 0
260 -152 -258 0
-260 246 258 0
-260 152 -258 0
261 -247 258 0
261 -153 -258 0
-261 247 258 0
-261 153 -258 0
262 -248 258 0
262 -154 -258 0
-262 248 258 0
-262 154 -258 0
263 -151 258 0
263 -245 -258 0
-263 151 258 0
-263 245 -258 0
264 -152 258 0
264 -246 -258 0
-264 152 258 0
-264 246 -258 0
265 -153 258 0
265 -247 -258 0
-265 153 258 0
-265 247 -258 0
266 -154 258 0
266 -248 -258 0
-266 154 258 0
-266 248 -258 0
-267 172 0
267 -172 190 0
-267 -190 0
-268 171 0
268 -171 172 189 190 0
-268 172 -190 0
-268 -189 0
268 -171 -172 189 -190 0
-268 -172 190 0
269 -268 0
-269 267 268 0
269 -267 0
-270 170 0
270 -170 172 188 190 0
-270 172 -190 0
-270 -188 0
270 -170 -172 188 -190 0
-270 -172 190 0
271 171 189 -270 0
-271 270 0
-271 171 -189 0
-271 -171 189 0
271 -171 -189 -270 0
272 -271 0
-272 269 271 0
272 -269 0
-273 169 0
273 -169 172 187 190 0
-273 172 -190 0
-273 -187 0
273 -169 -172 187 -190 0
-273 -172 190 0
274 171 189 -273 0
-274 273 0
-274 171 -189 0
-274 -171 189 0
274 -171 -189 -273 0
275 170 188 -274 0
-275 274 0
-275 170 -188 0
-275 -170 188 0
275 -170 -188 -274 0
276 -275 0
-276 272 275 0
276 -272 0
277 -169 276 0
277 -187 -276 0
-277 169 276 0
-277 187 -276 0
278 -170 276 0
278 -188 -276 0
-278 170 276 0
-278 188 -276 0
279 -171 276 0
279 -189 -276 0
-279 171 276 0
-279 189 -276 0
280 -172 276 0
280 -190 -276 0
-280 172 276 0
-280 190 -276 0
281 -187 276 0
281 -169 -276 0
-281 187 276 0
-281 169 -276 0
282 -188 276 0
282 -170 -276 0
-282 188 276 0
-282 170 -276 0
283 -189 276 0
283 -171 -276 0
-283 189 276 0
-283 171 -276 0
284 -190 276 0
284 -172 -276 0
-284 190 276 0
-284 172 -276 0
285 208 -284 0
-285 284 0
-285 -208 0
-286 283 0
286 207 208 -283 284 0
-286 208 -284 0
286 207 -208 -283 -284 0
-286 -208 284 0
-286 -207 0
287 -286 0
-287 285 286 0
287 -285 0
-288 282 0
288 206 208 -282 284 0
-288 208 -284 0
288 206 -208 -282 -284 0
-288 -208 284 0
-288 -206 0
289 207 283 -288 0
-289 288 0
-289 207 -283 0
-289 -207 283 0
289 -207 -283 -288 0
290 -289 0
-290 287 289 0
290 -287 0
-291 281 0
291 205 208 -281 284 0
-291 208 -284 0
291 205 -208 -281 -284 0
-291 -208 284 0
-291 -205 0
292 207 283 -291 0
-292 291 0
-292 207 -283 0
-292 -207 283 0
292 -207 -283 -291 0
293 206 282 -292 0
-293 292 0
-293 206 -282 0
-293 -206 282 0
293 -206 -282 -292 0
294 -293 0
-294 290 293 0
294 -290 0
295 -281 294 0
295 -205 -294 0
-295 281 294 0
-295 205 -294 0
296 -282 294 0
296 -206 -294 0
-296 282 294 0
-296 206 -294 0
297 -283 294 0
297 -207 -294 0
-297 283 294 0
-297 207 -294 0
298 -284 294 0
298 -208 -294 0
-298 284 294 0
-298 208 -294 0
299 -205 294 0
299 -281 -294 0
-299 205 294 0
-299 281 -294 0
300 -206 294 0
300 -282 -294 0
-300 206 294 0
-300 282 -294 0
301 -207 294 0
301 -283 -294 0
-301 207 294 0
-301 283 -294 0
302 -208 294 0
302 -284 -294 0
-302 208 294 0
-302 284 -294 0
303 226 -302 0
-303 302 0
-303 -226 0
-304 301 0
304 225 226 -301 302 0
-304 226 -302 0
304 225 -226 -301 -302 0
-304 -226 302 0
-304 -225 0
305 -304 0
-305 303 304 0
305 -303 0
-306 300 0
306 224 226 -300 302 0
-306 226 -302 0
306 224 -226 -300 -302 0
-306 -226 302 0
-306 -224 0
307 225 301 -306 0
-307 306 0
-307 225 -301 0
-307 -225 301 0
307 -225 -301 -306 0
308 -307 0
-308 305 307 0
308 -305 0
-309 299 0
309 223 226 -299 302 0
-309 226 -302 0
309 223 -226 -299 -302 0
-309 -226 302 0
-309 -223 0
310 225 301 -309 0
-310 309 0
-310 225 -301 0
-310 -225 301 0
310 -225 -301 -309 0
311 224 300 -310 0
-311 310 0
-311 224 -300 0
-311 -224 300 0
311 -224 -300 -310 0
312 -311 0
-312 308 311 0
312 -308 0
313 -299 312 0
313 -223 -312 0
-313 299 312 0
-313 223 -312 0
314 -300 312 0
314 -224 -312 0
-314 300 312 0
-314 224 -312 0
315 -301 312 0
315 -225 -312 0
-315 301 312 0
-315 225 -312 0
316 -302 312 0
316 -226 -312 0
-316 302 312 0
-316 226 -312 0
317 -223 312 0
317 -299 -312 0
-317 223 312 0
-317 299 -312 0
318 -224 312 0
318 -300 -312 0
-318 224 312 0
-318 300 -312 0
319 -225 312 0
319 -301 -312 0
-319 225 312 0
-319 301 -312 0
320 -226 312 0
320 -302 -312 0
-320 226 312 0
-320 302 -312 0
321 244 -320 0
-321 320 0
-321 -244 0
-322 319 0
322 243 244 -319 320 0
-322 244 -320 0
322 243 -244 -319 -320 0
-322 -244 320 0
-322 -243 0
323 -322 0
-323 321 322 0
323 -321 0
-324 318 0
324 242 244 -318 320 0
-324 244 -320 0
324 242 -244 -318 -320 0
-324 -244 320 0
-324 -242 0
325 243 319 -324 0
-325 324 0
-325 243 -319 0
-325 -243 319 0
325 -243 -319 -324 0
326 -325 0
-326 323 325 0
326 -323 0
-327 317 0
327 241 244 -317 320 0
-327 244 -320 0
327 241 -244 -317 -320 0
-327 -244 320 0
-327 -241 0
328 243 319 -327 0
-328 327 0
-328 243 -319 0
-328 -243 319 0
328 -243 -319 -327 0
329 242 318 -328 0
-329 328 0
-329 242 -318 0
-329 -242 318 0
329 -242 -318 -328 0
330 -329 0
-330 326 329 0
330 -326 0
331 -317 330 0
331 -241 -330 0
-331 317 330 0
-331 241 -330 0
332 -318 330 0
332 -242 -330 0
-332 318 330 0
-332 242 -330 0
333 -319 330 0
333 -243 -330 0
-333 319 330 0
-333 243 -330 0
334 -320 330 0
334 -244 -330 0
-334 320 330 0
-334 244 -330 0
335 -241 330 0
335 -317 -330 0
-335 241 330 0
-335 317 -330 0
336 -242 330 0
336 -318 -330 0
-336 242 330 0
-336 318 -330 0
337 -243 330 0
337 -319 -330 0
-337 243 330 0
-337 319 -330 0
338 -244 330 0
338 -320 -330 0
-338 244 330 0
-338 320 -330 0
339 262 -338 0
-339 338 0
-339 -262 0
-340 337 0
340 261 262 -337 338 0
-340 262 -338 0
340 261 -262 -337 -338 0
-340 -262 338 0
-340 -261 0
341 -340 0
-341 339 340 0
341 -339 0
-342 336 0
342 260 262 -336 338 0
-342 262 -338 0
342 260 -262 -336 -338 0
-342 -262 338 0
-342 -260 0
343 261 337 -342 0
-343 342 0
-343 261 -337 0
-343 -261 337 0
343 -261 -337 -342 0
344 -343 0
-344 341 343 0
344 -341 0
-345 335 0
345 259 262 -335 338 0
-345 262 -338 0
345 259 -262 -335 -338 0
-345 -262 338 0
-345 -259 0
346 261 337 -345 0
-346 345 0
-346 261 -337 0
-346 -261 337 0
346 -261 -337 -345 0
347 260 336 -346 0
-347 346 0
-347 260 -336 0
-347 -260 336 0
347 -260 -336 -346 0
348 -347 0
-348 344 347 0
348 -344 0
349 -335 348 0
349 -259 -348 0
-349 335 348 0
-349 259 -348 0
350 -336 348 0
350 -260 -348 0
-350 336 348 0
-350 260 -348 0
351 -337 348 0
351 -261 -348 0
-351 337 348 0
-351 261 -348 0
352 -338 348 0
352 -262 -348 0
-352 338 348 0
-352 262 -348 0
353 -259 348 0
353 -335 -348 0
-353 259 348 0
-353 335 -348 0
354 -260 348 0
354 -336 -348 0
-354 260 348 0
-354 336 -348 0
355 -261 348 0
355 -337 -348 0
-355 261 348 0
-355 337 -348 0
356 -262 348 0
356 -338 -348 0
-356 262 348 0
-356 338 -348 0
-357 280 0
357 -280 298 0
-357 -298 0
-358 279 0
358 -279 280 297 298 0
-358 280 -298 0
-358 -297 0
358 -279 -280 297 -298 0
-358 -280 298 0
359 -358 0
-359 357 358 0
359 -357 0
-360 278 0
360 -278 280 296 298 0
-360 280 -298 0
-360 -296 0
360 -278 -280 296 -298 0
-360 -280 298 0
361 279 297 -360 0
-361 360 0
-361 279 -297 0
-361 -279 297 0
361 -279 -297 -360 0
362 -361 0
-362 359 361 0
362 -359 0
-363 277 0
363 -277 280 295 298 0
-363 280 -298 0
-363 -295 0
363 -277 -280 295 -298 0
-363 -280 298 0
364 279 297 -363 0
-364 363 0
-364 279 -297 0
-364 -279 297 0
364 -279 -297 -363 0
365 278 296 -364 0
-365 364 0
-365 278 -296 0
-365 -278 296 0
365 -278 -296 -364 0
366 -365 0
-366 362 365 0
366 -362 0
367 -277 366 0
367 -295 -366 0
-367 277 366 0
-367 295 -366 0
368 -278 366 0
368 -296 -366 0
-368 278 366 0
-368 296 -366 0
369 -279 366 0
369 -297 -366 0
-369 279 366 0
-369 297 -366 0
370 -280 366 0
370 -298 -366 0
-370 280 366 0
-370 298 -366 0
371 -295 366 0
371 -277 -366 0
-371 295 366 0
-371 277 -366 0
372 -296 366 0
372 -278 -366 0
-372 296 366 0
-372 278 -366 0
373 -297 366 0
373 -279 -366 0
-373 297 366 0
-373 279 -366 0
374 -298 366 0
374 -280 -366 0
-374 298 366 0
-374 280 -366 0
375 316 -374 0
-375 374 0
-375 -316 0
-376 373 0
376 315 316 -373 374 0
-376 316 -374 0
376 315 -316 -373 -374 0
-376 -316 374 0
-376 -315 0
377 -376 0
-377 375 376 0
377 -375 0
-378 372 0
378 314 316 -372 374 0
-378 316 -374 0
378 314 -316 -372 -374 0
-378 -316 374 0
-378 -314 0
379 315 373 -378 0
-379 378 0
-379 315 -373 0
-379 -315 373 0
379 -315 -373 -378 0
380 -379 0
-380 377 379 0
380 -377 0
-381 371 0
381 313 316 -371 374 0
-381 316 -374 0
381 313 -316 -371 -374 0
-381 -316 374 0
-381 -313 0
382 315 373 -381 0
-382 381 0
-382 315 -373 0
-382 -315 373 0
382 -315 -373 -381 0
383 314 372 -382 0
-383 382 0
-383 314 -372 0
-383 -314 372 0
383 -314 -372 -382 0
384 -383 0
-384 380 383 0
384 -380 0
385 -371 384 0
385 -313 -384 0
-385 371 384 0
-385 313 -384 0
386 -372 384 0
386 -314 -384 0
-386 372 384 0
-386 314 -384 0
387 -373 384 0
387 -315 -384 0
-387 373 384 0
-387 315 -384 0
388 -374 384 0
388 -316 -384 0
-388 374 384 0
-388 316 -384 0
389 -313 384 0
389 -371 -384 0
-389 313 384 0
-389 371 -384 0
390 -314 384 0
390 -372 -384 0
-390 314 384 0
-390 372 -384 0
391 -315 384 0
391 -373 -384 0
-391 315 384 0
-391 373 -384 0
392 -316 384 0
392 -374 -384 0
-392 316 384 0
-392 374 -384 0
393 334 -392 0
-393 392 0
-393 -334 0
-394 391 0
394 333 334 -391 392 0
-394 334 -392 0
394 333 -334 -391 -392 0
-394 -334 392 0
-394 -333 0
395 -394 0
-395 393 394 0
395 -393 0
-396 390 0
396 332 334 -390 392 0
-396 334 -392 0
396 332 -334 -390 -392 0
-396 -334 392 0
-396 -332 0
397 333 391 -396 0
-397 396 0
-397 333 -391 0
-397 -333 391 0
397 -333 -391 -396 0
398 -397 0
-398 395 397 0
398 -395 0
-399 389 0
399 331 334 -389 392 0
-399 334 -392 0
399 331 -334 -389 -392 0
-399 -334 392 0
-399 -331 0
400 333 391 -399 0
-400 399 0
-400 333 -391 0
-400 -333 391 0
400 -333 -391 -399 0
401 332 390 -400 0
-401 400 0
-401 332 -390 0
-401 -332 390 0
401 -332 -390 -400 0
402 -401 0
-402 398 401 0
402 -398 0
403 -389 402 0
403 -331 -402 0
-403 389 402 0
-403 331 -402 0
404 -390 402 0
404 -332 -402 0
-404 390 402 0
-404 332 -402 0
405 -391 402 0
405 -333 -402 0
-405 391 402 0
-405 333 -402 0
406 -392 402 0
406 -334 -402 0
-406 392 402 0
-406 334 -402 0
407 -331 402 0
407 -389 -402 0
-407 331 402 0
-407 389 -402 0
408 -332 402 0
408 -390 -402 0
-408 332 402 0
-408 390 -402 0
409 -333 402 0
409 -391 -402 0
-409 333 402 0
-409 391 -402 0
410 -334 402 0
410 -392 -402 0
-410 334 402 0
-410 392 -402 0
411 352 -410 0
-411 410 0
-411 -352 0
-412 409 0
412 351 352 -409 410 0
-412 352 -410 0
412 351 -352 -409 -410 0
-412 -352 410 0
-412 -351 0
413 -412 0
-413 411 412 0
413 -411 0
-414 408 0
414 350 352 -408 410 0
-414 352 -410 0
414 350 -352 -408 -410 0
-414 -352 410 0
-414 -350 0
415 351 409 -414 0
-415 414 0
-415 351 -409 0
-415 -351 409 0
415 -351 -409 -414 0
416 -415 0
-416 413 415 0
416 -413 0
-417 407 0
417 349 352 -407 410 0
-417 352 -410 0
417 349 -352 -407 -410 0
-417 -352 410 0
-417 -349 0
418 351 409 -417 0
-418 417 0
-418 351 -409 0
-418 -351 409 0
418 -351 -409 -417 0
419 350 408 -418 0
-419 418 0
-419 350 -408 0
-419 -350 408 0
419 -350 -408 -418 0
420 -419 0
-420 416 419 0
420 -416 0
421 -407 420 0
421 -349 -420 0
-421 407 420 0
-421 349 -420 0
422 -408 420 0
422 -350 -420 0
-422 408 420 0
-422 350 -420 0
423 -409 420 0
423 -351 -420 0
-423 409 420 0
-423 351 -420 0
424 -410 420 0
424 -352 -420 0
-424 410 420 0
-424 352 -420 0
425 -349 420 0
425 -407 -420 0
-425 349 420 0
-425 407 -420 0
426 -350 420 0
426 -408 -420 0
-426 350 420 0
-426 408 -420 0
427 -351 420 0
427 -409 -420 0
-427 351 420 0
-427 409 -420 0
428 -352 420 0
428 -410 -420 0
-428 352 420 0
-428 410 -420 0
-429 370 0
429 -370 388 0
-429 -388 0
-430 369 0
430 -369 370 387 388 0
-430 370 -388 0
-430 -387 0
430 -369 -370 387 -388 0
-430 -370 388 0
431 -430 0
-431 429 430 0
431 -429 0
-432 368 0
432 -368 370 386 388 0
-432 370 -388 0
-432 -386 0
432 -368 -370 386 -388 0
-432 -370 388 0
433 369 387 -432 0
-433 432 0
-433 369 -387 0
-433 -369 387 0
433 -369 -387 -432 0
434 -433 0
-434 431 433 0
434 -431 0
-435 367 0
435 -367 370 385 388 0
-435 370 -388 0
-435 -385 0
435 -367 -370 385 -388 0
-435 -370 388 0
436 369 387 -435 0
-436 435 0
-436 369 -387 0
-436 -369 387 0
436 -369 -387 -435 0
437 368 386 -436 0
-437 436 0
-437 368 -386 0
-437 -368 386 0
437 -368 -386 -436 0
438 -437 0
-438 434 437 0
438 -434 0
439 -367 438 0
439 -385 -438 0
-439 367 438 0
-439 385 -438 0
440 -368 438 0
440 -386 -438 0
-440 368 438 0
-440 386 -438 0
441 -369 438 0
441 -387 -438 0
-441 369 438 0
-441 387 -438 0
442 -370 438 0
442 -388 -438 0
-442 370 438 0
-442 388 -438 0
443 -385 438 0
443 -367 -438 0
-443 385 438 0
-443 367 -438 0
444 -386 438 0
444 -368 -438 0
-444 386 438 0
-444 368 -438 0
445 -387 438 0
445 -369 -438 0
-445 387 438 0
-445 369 -438 0
446 -388 438 0
446 -370 -438 0
-446 388 438 0
-446 370 -438 0
447 406 -446 0
-447 446 0
-447 -406 0
-448 445 0
448 405 406 -445 446 0
-448 406 -446 0
448 405 -406 -445 -446 0
-448 -406 446 0
-448 -405 0
449 -448 0
-449 447 448 0
449 -447 0
-450 444 0
450 404 406 -444 446 0
-450 406 -446 0
450 404 -406 -444 -446 0
-450 -406 446 0
-450 -404 0
451 405 445 -450 0
-451 450 0
-451 405 -445 0
-451 -405 445 0
451 -405 -445 -450 0
452 -451 0
-452 449 451 0
452 -449 0
-453 443 0
453 403 406 -443 446 0
-453 406 -446 0
453 403 -406 -443 -446 0
-453 -406 446 0
-453 -403 0
454 405 445 -453 0
-454 453 0
-454 405 -445 0
-454 -405 445 0
454 -405 -445 -453 0
455 404 444 -454 0
-455 454 0
-455 404 -444 0
-455 -404 444 0
455 -404 -444 -454 0
456 -455 0
-456 452 455 0
456 -452 0
457 -443 456 0
457 -403 -456 0
-457 443 456 0
-457 403 -456 0
458 -444 456 0
458 -404 -456 0
-458 444 456 0
-458 404 -456 0
459 -445 456 0
459 -405 -456 0
-459 445 456 0
-459 405 -456 0
460 -446 456 0
460 -406 -456 0
-460 446 456 0
-460 406 -456 0
461 -403 456 0
461 -443 -456 0
-461 403 456 0
-461 443 -456 0
462 -404 456 0
462 -444 -456 0
-462 404 456 0
-462 444 -456 0
463 -405 456 0
463 -445 -456 0
-463 405 456 0
-463 445 -456 0
464 -406 456 0
464 -446 -456 0
-464 406 456 0
-464 446 -456 0
465 424 -464 0
-465 464 0
-465 -424 0
-466 463 0
466 423 424 -463 464 0
-466 424 -464 0
466 423 -424 -463 -464 0
-466 -424 464 0
-466 -423 0
467 -466 0
-467 465 466 0
467 -465 0
-468 462 0
468 422 424 -462 464 0
-468 424 -464 0
468 422 -424 -462 -464 0
-468 -424 464 0
-468 -422 0
469 423 463 -468 0
-469 468 0
-469 423 -463 0
-469 -423 463 0
469 -423 -463 -468 0
470 -469 0
-470 467 469 0
470 -467 0
-471 461 0
471 421 424 -461 464 0
-471 424 -464 0
471 421 -424 -461 -464 0
-471 -424 464 0
-471 -421 0
472 423 463 -471 0
-472 471 0
-472 423 -463 0
-472 -423 463 0
472 -423 -463 -471 0
473 422 462 -472 0
-473 472 0
-473 422 -462 0
-473 -422 462 0
473 -422 -462 -472 0
474 -473 0
-474 470 473 0
474 -470 0
475 -461 474 0
475 -421 -474 0
-475 461 474 0
-475 421 -474 0
476 -462 474 0
476 -422 -474 0
-476 462 474 0
-476 422 -474 0
477 -463 474 0
477 -423 -474 0
-477 463 474 0
-477 423 -474 0
478 -464 474 0
478 -424 -474 0
-478 464 474 0
-478 424 -474 0
479 -421 474 0
479 -461 -474 0
-479 421 474 0
-479 461 -474 0
480 -422 474 0
480 -462 -474 0
-480 422 474 0
-480 462 -474 0
481 -423 474 0
481 -463 -474 0
-481 423 474 0
-481 463 -474 0
482 -424 474 0
482 -464 -474 0
-482 424 474 0
-482 464 -474 0
-483 442 0
483 -442 460 0
-483 -460 0
-484 441 0
484 -441 442 459 460 0
-484 442 -460 0
-484 -459 0
484 -441 -442 459 -460 0
-484 -442 460 0
485 -484 0
-485 483 484 0
485 -483 0
-486 440 0
486 -440 442 458 460 0
-486 442 -460 0
-486 -458 0
486 -440 -442 458 -460 0
-486 -442 460 0
487 441 459 -486 0
-487 486 0
-487 441 -459 0
-487 -441 459 0
487 -441 -459 -486 0
488 -487 0
-488 485 487 0
488 -485 0
-489 439 0
489 -439 442 457 460 0
-489 442 -460 0
-489 -457 0
489 -439 -442 457 -460 0
-489 -442 460 0
490 441 459 -489 0
-490 489 0
-490 441 -459 0
-490 -441 459 0
490 -441 -459 -489 0
491 440 458 -490 0
-491 490 0
-491 440 -458 0
-491 -440 458 0
491 -440 -458 -490 0
492 -491 0
-492 488 491 0
492 -488 0
493 -439 492 0
493 -457 -492 0
-493 439 492 0
-493 457 -492 0
494 -440 492 0
494 -458 -492 0
-494 440 492 0
-494 458 -492 0
495 -441 492 0
495 -459 -492 0
-495 441 492 0
-495 459 -492 0
496 -442 492 0
496 -460 -492 0
-496 442 492 0
-496 460 -492 0
497 -457 492 0
497 -439 -492 0
-497 457 492 0
-497 439 -492 0
498 -458 492 0
498 -440 -492 0
-498 458 492 0
-498 440 -492 0
499 -459 492 0
499 -441 -492 0
-499 459 492 0
-499 441 -492 0
500 -460 492 0
500 -442 -492 0
-500 460 492 0
-500 442 -492 0
501 478 -500 0
-501 500 0
-501 -478 0
-502 499 0
502 477 478 -499 500 0
-502 478 -500 0
502 477 -478 -499 -500 0
-502 -478 500 0
-502 -477 0
503 -502 0
-503 501 502 0
503 -501 0
-504 498 0
504 476 478 -498 500 0
-504 478 -500 0
504 476 -478 -498 -500 0
-504 -478 500 0
-504 -476 0
505 477 499 -504 0
-505 504 0
-505 477 -499 0
-505 -477 499 0
505 -477 -499 -504 0
506 -505 0
-506 503 505 0
506 -503 0
-507 497 0
507 475 478 -497 500 0
-507 478 -500 0
507 475 -478 -497 -500 0
-507 -478 500 0
-507 -475 0
508 477 499 -507 0
-508 507 0
-508 477 -499 0
-508 -477 499 0
508 -477 -499 -507 0
509 476 498 -508 0
-509 508 0
-509 476 -498 0
-509 -476 498 0
509 -476 -498 -508 0
510 -509 0
-510 506 509 0
510 -506 0
511 -497 510 0
511 -475 -510 0
-511 497 510 0
-511 475 -510 0
512 -498 510 0
512 -476 -510 0
-512 498 510 0
-512 476 -510 0
513 -499 510 0
513 -477 -510 0
-513 499 510 0
-513 477 -510 0
514 -500 510 0
514 -478 -510 0
-514 500 510 0
-514 478 -510 0
515 -475 510 0
515 -497 -510 0
-515 475 510 0
-515 497 -510 0
516 -476 510 0
516 -498 -510 0
-516 476 510 0
-516 498 -510 0
517 -477 510 0
517 -499 -510 0
-517 477 510 0
-517 499 -510 0
518 -478 510 0
518 -500 -510 0
-518 478 510 0
-518 500 -510 0
-519 496 0
519 -496 514 0
-519 -514 0
-520 495 0
520 -495 496 513 514 0
-520 496 -514 0
-520 -513 0
520 -495 -496 513 -514 0
-520 -496 514 0
521 -520 0
-521 519 520 0
521 -519 0
-522 494 0
522 -494 496 512 514 0
-522 496 -514 0
-522 -512 0
522 -494 -496 512 -514 0
-522 -496 514 0
523 495 513 -522 0
-523 522 0
-523 495 -513 0
-523 -495 513 0
523 -495 -513 -522 0
524 -523 0
-524 521 523 0
524 -521 0
-525 493 0
525 -493 496 511 514 0
-525 496 -514 0
-525 -511 0
525 -493 -496 511 -514 0
-525 -496 514 0
526 495 513 -525 0
-526 525 0
-526 495 -513 0
-526 -495 513 0
526 -495 -513 -525 0
527 494 512 -526 0
-527 526 0
-527 494 -512 0
-527 -494 512 0
527 -494 -512 -526 0
528 -527 0
-528 524 527 0
528 -524 0
529 -493 528 0
529 -511 -528 0
-529 493 528 0
-529 511 -528 0
530 -494 528 0
530 -512 -528 0
-530 494 528 0
-530 512 -528 0
531 -495 528 0
531 -513 -528 0
-531 495 528 0
-531 513 -528 0
532 -496 528 0
532 -514 -528 0
-532 496 528 0
-532 514 -528 0
533 -511 528 0
533 -493 -528 0
-533 511 528 0
-533 493 -528 0
534 -512 528 0
534 -494 -528 0
-534 512 528 0
-534 494 -528 0
535 -513 528 0
535 -495 -528 0
-535 513 528 0
-535 495 -528 0
536 -514 528 0
536 -496 -528 0
-536 514 528 0
-536 496 -528 0
-537 0
-538 0
-539 0
-540 0
-541 0
-542 0
-543 0
-544 0
-545 0
-546 0
-547 0
-548 0
-549 0
-550 0
-551 0
-552 0
-553 0
-554 0
-555 0
-556 0
-557 0
-558 0
-559 0
-560 0
-561 0
-562 0
-563 0
-564 0
-565 0
-566 0
-567 0
-568 0
569 -540 0
-569 537 538 539 540 0
569 -539 0
569 -538 0
569 -537 0
570 -544 0
-570 541 542 543 544 0
570 -543 0
570 -542 0
570 -541 0
571 -548 0
-571 545 546 547 548 0
571 -547 0
571 -546 0
571 -545 0
572 -552 0
-572 549 550 551 552 0
572 -551 0
572 -550 0
572 -549 0
573 -556 0
-573 553 554 555 556 0
573 -555 0
573 -554 0
573 -553 0
574 -560 0
-574 557 558 559 560 0
574 -559 0
574 -558 0
574 -557 0
575 -564 0
-575 561 562 563 564 0
575 -563 0
575 -562 0
575 -561 0
576 -568 0
-576 565 566 567 568 0
576 -567 0
576 -566 0
576 -565 0
577 -576 0
-577 569 570 571 572 573 574 575 576 0
577 -575 0
577 -574 0
577 -573 0
577 -572 0
577 -571 0
577 -570 0
577 -569 0
577 0
